c Sudoku solution
p cnf 729 0
138 0
169 0
193 0
212 0
241 0
296 0
327 0
358 0
372 0
424 0
436 0
553 0
562 0
613 0
666 0
684 0
544 0
723 0
732 0
622 0
767 0
775 0
886 0
576 0
891 0
915 0
931 0
751 0
461 0
671 0
982 0
492 0
483 0
829 0
225 0
448 0
455 0
698 0
635 0
174 0
142 0
185 0
381 0
399 0
157 0
346 0
365 0
263 0
254 0
333 0
239 0
314 0
794 0
834 0
817 0
852 0
419 0
537 0
477 0
845 0
943 0
868 0
964 0
873 0
749 0
956 0
716 0
928 0
788 0
111 0
126 0
518 0
521 0
647 0
659 0
278 0
287 0
979 0
997 0
589 0
595 0
